maximize
funcion: sn1+sn2+sp1
st
sumatorio_entradas1: +4.000000d1+0.000000d2+5.000000d3+9.000000d4+4.000000d5+3.000000d6+7.000000d7+1.000000d8+8.000000d9+0.000000d10+2.000000d11+1.000000d12+1.000000d13+4.000000d14+2.000000d15+7.000000d16+4.000000d17+7.000000d18+0.000000d19+7.000000d20+8.000000d21+3.000000d22+1.000000d23+7.000000d24+8.000000d25+3.000000d26+4.000000d27+0.000000d28+1.000000d29+8.000000d30+sn1=8.000000
sumatorio_entradas2: +1.000000d1+0.000000d2+5.000000d3+2.000000d4+6.000000d5+4.000000d6+4.000000d7+7.000000d8+0.000000d9+2.000000d10+7.000000d11+7.000000d12+6.000000d13+3.000000d14+1.000000d15+8.000000d16+2.000000d17+9.000000d18+0.000000d19+6.000000d20+7.000000d21+3.000000d22+7.000000d23+4.000000d24+3.000000d25+7.000000d26+6.000000d27+1.000000d28+3.000000d29+8.000000d30+sn2=8.000000
sumatorio_salidas1: +219.000000d1+228.000000d2+108.000000d3+23.000000d4+67.000000d5+176.000000d6+160.000000d7+124.000000d8+134.000000d9+99.000000d10+152.000000d11+244.000000d12+120.000000d13+85.000000d14+108.000000d15+10.000000d16+40.000000d17+225.000000d18+131.000000d19+201.000000d20+138.000000d21+75.000000d22+151.000000d23+98.000000d24+84.000000d25+100.000000d26+105.000000d27+184.000000d28+208.000000d29+4.000000d30-sp1=4.000000
VRS: +d1+d2+d3+d4+d5+d6+d7+d8+d9+d10+d11+d12+d13+d14+d15+d16+d17+d18+d19+d20+d21+d22+d23+d24+d25+d26+d27+d28+d29+d30 = 1
bounds
d1>=0
d2>=0
d3>=0
d4>=0
d5>=0
d6>=0
d7>=0
d8>=0
d9>=0
d10>=0
d11>=0
d12>=0
d13>=0
d14>=0
d15>=0
d16>=0
d17>=0
d18>=0
d19>=0
d20>=0
d21>=0
d22>=0
d23>=0
d24>=0
d25>=0
d26>=0
d27>=0
d28>=0
d29>=0
d30>=0
sn1>=0
sn2>=0
sp1>=0
end